
Gurobi 9.0.2 (win64) logging started Sun Dec 27 04:42:52 2020

Changed value of parameter logfile to result\SunCable-20201227T0415\scenario_2030_m30_cab5000.log
   Prev:   Default: 
Gurobi Optimizer version 9.0.2 build v9.0.2rc0 (win64)
Optimize a model with 1243974 rows, 762167 columns and 3491691 nonzeros
Model fingerprint: 0xe6ddad64
Coefficient statistics:
  Matrix range     [1e-07, 5e+05]
  Objective range  [1e+00, 1e+00]
  Bounds range     [0e+00, 0e+00]
  RHS range        [2e-05, 3e+08]
Warning: Model contains large matrix coefficient range
         Consider reformulating model or setting NumericFocus parameter
         to avoid numerical issues.

Concurrent LP optimizer: primal simplex, dual simplex, and barrier
Showing barrier log only...

Presolve removed 1068997 rows and 595935 columns
Presolve time: 2.70s
Presolved: 174977 rows, 280098 columns, 652320 nonzeros

Ordering time: 0.08s

Barrier statistics:
 Dense cols : 5
 AA' NZ     : 6.422e+05
 Factor NZ  : 3.150e+06 (roughly 200 MBytes of memory)
 Factor Ops : 7.040e+07 (less than 1 second per iteration)
 Threads    : 30

                  Objective                Residual
Iter       Primal          Dual         Primal    Dual     Compl     Time
   0  -2.63267642e+16 -1.07293403e+15  7.68e+06 2.51e+04  3.16e+12     3s
   1  -5.54960740e+15 -1.08626530e+15  1.61e+06 4.57e+06  8.74e+11     3s
   2  -1.81285236e+15 -1.02573777e+15  5.29e+05 8.03e+05  2.51e+11     4s
   3  -3.45886206e+14 -9.00128453e+14  1.02e+05 1.27e+05  4.92e+10     4s
   4  -7.83992696e+13 -5.61638784e+14  2.23e+04 3.49e+04  1.19e+10     4s
   5  -2.45006803e+13 -3.71993478e+14  7.14e+03 1.68e+04  4.50e+09     4s
   6  -7.18449659e+12 -2.90779715e+14  2.31e+03 1.07e+04  2.13e+09     5s
   7  -2.41391473e+12 -1.08990416e+14  9.25e+02 1.06e+03  5.01e+08     5s
   8   5.93844145e+11 -2.88921640e+13  2.29e+01 5.77e+01  5.95e+07     5s
   9   3.69312466e+11 -1.74549663e+12  2.75e+00 1.74e+00  4.02e+06     5s
  10   1.45327629e+11 -6.51095582e+11  7.07e-01 1.94e-01  1.46e+06     6s
  11   3.69559037e+10 -1.60130351e+11  1.23e-01 5.59e-09  3.52e+05     6s
  12   2.14093564e+10 -8.15613883e+10  6.00e-02 5.59e-09  1.83e+05     6s
  13   1.53477004e+10 -2.59012939e+10  2.02e-02 7.45e-09  7.32e+04     6s
  14   1.20818203e+10 -3.05290960e+09  1.09e-02 7.45e-09  2.69e+04     7s
  15   1.01168070e+10  2.13811431e+09  4.75e-03 5.59e-09  1.42e+04     7s
  16   9.35998793e+09  3.79693771e+09  2.40e-03 5.59e-09  9.84e+03     7s
  17   8.88506061e+09  5.29789003e+09  9.48e-04 3.73e-09  6.33e+03     7s
  18   8.73360468e+09  6.68685367e+09  5.06e-04 2.79e-09  3.61e+03     7s
  19   8.70028720e+09  6.87521114e+09  4.14e-04 3.73e-09  3.22e+03     8s
  20   8.65540436e+09  7.04232918e+09  2.80e-04 3.73e-09  2.84e+03     8s
  21   8.60841052e+09  7.59730737e+09  1.50e-04 2.79e-09  1.78e+03     8s
  22   8.58931171e+09  7.84541381e+09  1.07e-04 1.86e-09  1.31e+03     9s
  23   8.57338304e+09  8.01789440e+09  7.27e-05 1.86e-09  9.78e+02     9s
  24   8.56637532e+09  8.05328003e+09  5.98e-05 2.79e-09  9.03e+02     9s
  25   8.56111935e+09  8.09270124e+09  5.02e-05 2.79e-09  8.24e+02     9s
  26   8.55485523e+09  8.16252483e+09  3.80e-05 1.86e-09  6.90e+02    10s
  27   8.54465737e+09  8.19662858e+09  1.89e-05 1.86e-09  6.12e+02    10s
  28   8.53600599e+09  8.31024986e+09  4.31e-06 1.86e-09  3.97e+02    10s
  29   8.53509850e+09  8.33668005e+09  3.71e-06 1.86e-09  3.49e+02    11s
  30   8.53438060e+09  8.36092726e+09  3.24e-06 1.86e-09  3.05e+02    11s
  31   8.53268989e+09  8.36825210e+09  1.89e-06 1.86e-09  2.89e+02    11s
  32   8.53227440e+09  8.39140279e+09  1.58e-06 1.86e-09  2.48e+02    11s
  33   8.53109627e+09  8.42915144e+09  9.79e-07 2.79e-09  1.79e+02    11s
  34   8.53030957e+09  8.43615863e+09  5.02e-07 1.86e-09  1.66e+02    12s
  35   8.52973317e+09  8.48736075e+09  2.13e-07 2.79e-09  7.45e+01    12s
  36   8.52956237e+09  8.48840752e+09  1.67e-07 2.79e-09  7.24e+01    12s
  37   8.52937419e+09  8.49970542e+09  8.97e-08 2.79e-09  5.22e+01    13s
  38   8.52927440e+09  8.50108123e+09  7.00e-08 2.79e-09  4.96e+01    13s
  39   8.52912074e+09  8.51337665e+09  7.00e-08 1.86e-09  2.77e+01    13s
  40   8.52900449e+09  8.52165873e+09  1.31e-07 1.86e-09  1.29e+01    13s
  41   8.52898292e+09  8.52206096e+09  8.06e-08 1.86e-09  1.22e+01    13s
  42   8.52895308e+09  8.52370972e+09  3.67e-07 1.86e-09  9.22e+00    14s
  43   8.52894593e+09  8.52474736e+09  5.04e-07 1.86e-09  7.38e+00    14s
  44   8.52893325e+09  8.52535615e+09  2.33e-07 1.86e-09  6.29e+00    14s
  45   8.52892130e+09  8.52638268e+09  2.53e-07 1.86e-09  4.46e+00    14s
  46   8.52892234e+09  8.52694440e+09  2.32e-07 1.86e-09  3.48e+00    15s
  47   8.52890982e+09  8.52833724e+09  5.95e-07 1.86e-09  1.01e+00    15s
  48   8.52890313e+09  8.52889007e+09  3.68e-07 3.49e-09  2.30e-02    15s
  49   8.52890139e+09  8.52890070e+09  3.78e-08 6.87e-09  1.20e-03    15s
  50   8.52890138e+09  8.52890072e+09  1.42e-04 2.79e-09  1.16e-03    16s

Barrier solved model in 50 iterations and 15.53 seconds
Optimal objective 8.52890138e+09

Crossover log...

   11067 DPushes remaining with DInf 0.0000000e+00                16s
    1907 DPushes remaining with DInf 0.0000000e+00                20s
       0 DPushes remaining with DInf 0.0000000e+00                22s
Warning: Markowitz tolerance tightened to 0.5

  133418 PPushes remaining with PInf 2.1559092e-01                22s
   60218 PPushes remaining with PInf 9.5663045e-02                32s
       0 PPushes remaining with PInf 0.0000000e+00                33s

  Push phase complete: Pinf 0.0000000e+00, Dinf 4.2955305e+03     33s

Iteration    Objective       Primal Inf.    Dual Inf.      Time
  144487    8.5289013e+09   0.000000e+00   4.295531e+03     33s
Extra one simplex iteration after uncrush
  145284    8.5289013e+09   0.000000e+00   0.000000e+00     37s

Solved with barrier
Solved in 145284 iterations and 37.23 seconds
Optimal objective  8.528901291e+09
Warning: unscaled primal violation = 0.000873244 and residual = 0.000873244
